1622363
13 54 13536
54 1 18207
1 24 15310
24 61 5437
61 42 10110
42 12 4831
12 32 4813
32 56 1427
56 40 3489
40 5 3130
5 19 15574
19 49 8895
49 23 4353
23 60 7498
60 29 6419
29 6 14521
6 41 10602
41 25 5278
25 30 1249
30 3 21977
3 21 17216
21 38 42598
38 7 28523
7 67 19183
67 64 14572
64 11 35955
11 66 13370
66 26 57991
26 55 61621
55 34 20835
34 46 36286
46 43 69394
43 22 102153
22 52 46274
52 33 101509
33 57 88918
57 18 27906
18 10 28652
10 14 62052
14 44 62420
44 31 78229
31 28 65445
28 50 10810
50 53 48925
53 37 6554
37 62 30446
62 39 8740
39 51 11004
51 35 8926
35 68 19070
68 8 34471
8 36 11459
36 59 8563
59 16 10880
16 63 14689
63 15 38600
15 58 6904
58 9 1777
9 17 5356
17 27 1445
27 45 8214
45 65 16726
65 2 19463
2 48 7938
48 4 7248
4 20 4440
20 47 12843
47 13 9114
